U1 Cu2 P2
1.0
        3.9418098927         0.0000000000         0.0000000000
       -1.9709049463         3.4137075039         0.0000000000
        0.0000000000         0.0000000000         6.3653202057
    U   Cu    P
    1    2    2
Cartesian
     0.000000000         0.000000000         0.000000000
     1.970905005         1.137902535         2.359487816
     0.000000000         2.275805070         4.005832579
     1.970905005         1.137902535         4.710716416
     0.000000000         2.275805070         1.654603600
