Position data Generated by SPaMD
128	atoms
1	atom types
0.000000		14.460000	xlo xhi
0.000000		14.460000	ylo yhi
0.000000		14.460000	zlo zhi

Atoms

1	1	0.000000	0.000000	0.000000
2	1	10.845000	12.652500	12.652500
3	1	12.652500	12.652500	10.845000
4	1	0.000000	1.807500	1.807500
5	1	10.845000	10.845000	10.845000
6	1	1.807500	1.807500	3.615000
7	1	1.807500	0.000000	5.422500
8	1	12.652500	10.845000	9.037500
9	1	0.000000	0.000000	7.230000
10	1	10.845000	12.652500	5.422500
11	1	12.652500	12.652500	3.615000
12	1	10.845000	10.845000	3.615000
13	1	12.652500	10.845000	1.807500
14	1	10.845000	9.037500	12.652500
15	1	12.652500	7.230000	12.652500
16	1	12.652500	9.037500	10.845000
17	1	0.000000	3.615000	0.000000
18	1	1.807500	5.422500	0.000000
19	1	10.845000	7.230000	7.230000
20	1	0.000000	5.422500	1.807500
21	1	12.652500	7.230000	5.422500
22	1	1.807500	5.422500	3.615000
23	1	1.807500	3.615000	5.422500
24	1	0.000000	5.422500	5.422500
25	1	12.652500	9.037500	3.615000
26	1	1.807500	5.422500	7.230000
27	1	1.807500	3.615000	9.037500
28	1	10.845000	7.230000	3.615000
29	1	12.652500	7.230000	1.807500
30	1	12.652500	9.037500	0.000000
31	1	1.807500	3.615000	12.652500
32	1	10.845000	7.230000	0.000000
33	1	0.000000	7.230000	0.000000
34	1	10.845000	5.422500	12.652500
35	1	10.845000	3.615000	10.845000
36	1	0.000000	9.037500	1.807500
37	1	10.845000	5.422500	9.037500
38	1	1.807500	9.037500	3.615000
39	1	12.652500	5.422500	7.230000
40	1	0.000000	9.037500	5.422500
41	1	10.845000	3.615000	7.230000
42	1	10.845000	5.422500	5.422500
43	1	12.652500	3.615000	5.422500
44	1	0.000000	9.037500	9.037500
45	1	12.652500	5.422500	3.615000
46	1	1.807500	9.037500	10.845000
47	1	10.845000	3.615000	3.615000
48	1	0.000000	9.037500	12.652500
49	1	10.845000	5.422500	1.807500
50	1	10.845000	1.807500	12.652500
51	1	1.807500	10.845000	1.807500
52	1	12.652500	1.807500	10.845000
53	1	10.845000	1.807500	9.037500
54	1	1.807500	12.652500	3.615000
55	1	1.807500	10.845000	5.422500
56	1	0.000000	12.652500	5.422500
57	1	12.652500	1.807500	7.230000
58	1	12.652500	0.000000	5.422500
59	1	1.807500	10.845000	9.037500
60	1	10.845000	0.000000	3.615000
61	1	0.000000	10.845000	10.845000
62	1	1.807500	12.652500	10.845000
63	1	1.807500	10.845000	12.652500
64	1	10.845000	1.807500	1.807500
65	1	12.652500	1.807500	0.000000
66	1	9.037500	12.652500	10.845000
67	1	7.230000	12.652500	9.037500
68	1	9.037500	10.845000	9.037500
69	1	9.037500	12.652500	7.230000
70	1	5.422500	1.807500	3.615000
71	1	7.230000	10.845000	7.230000
72	1	7.230000	12.652500	1.807500
73	1	3.615000	0.000000	7.230000
74	1	5.422500	1.807500	7.230000
75	1	9.037500	12.652500	0.000000
76	1	3.615000	1.807500	9.037500
77	1	7.230000	10.845000	0.000000
78	1	9.037500	9.037500	10.845000
79	1	5.422500	0.000000	12.652500
80	1	7.230000	7.230000	10.845000
81	1	9.037500	7.230000	9.037500
82	1	5.422500	5.422500	0.000000
83	1	9.037500	9.037500	7.230000
84	1	7.230000	9.037500	5.422500
85	1	3.615000	3.615000	3.615000
86	1	9.037500	7.230000	5.422500
87	1	9.037500	9.037500	3.615000
88	1	7.230000	9.037500	1.807500
89	1	9.037500	7.230000	1.807500
90	1	7.230000	7.230000	0.000000
91	1	5.422500	3.615000	9.037500
92	1	3.615000	5.422500	9.037500
93	1	7.230000	5.422500	12.652500
94	1	9.037500	5.422500	10.845000
95	1	7.230000	3.615000	10.845000
96	1	9.037500	3.615000	9.037500
97	1	3.615000	7.230000	0.000000
98	1	9.037500	3.615000	5.422500
99	1	5.422500	7.230000	1.807500
100	1	3.615000	9.037500	1.807500
101	1	9.037500	5.422500	3.615000
102	1	7.230000	3.615000	3.615000
103	1	5.422500	7.230000	5.422500
104	1	3.615000	9.037500	5.422500
105	1	3.615000	7.230000	7.230000
106	1	5.422500	9.037500	7.230000
107	1	5.422500	7.230000	9.037500
108	1	7.230000	5.422500	1.807500
109	1	9.037500	3.615000	1.807500
110	1	5.422500	9.037500	10.845000
111	1	7.230000	3.615000	0.000000
112	1	7.230000	1.807500	12.652500
113	1	9.037500	0.000000	12.652500
114	1	9.037500	1.807500	10.845000
115	1	7.230000	0.000000	10.845000
116	1	3.615000	12.652500	1.807500
117	1	7.230000	1.807500	9.037500
118	1	7.230000	0.000000	7.230000
119	1	7.230000	1.807500	5.422500
120	1	3.615000	12.652500	5.422500
121	1	7.230000	0.000000	3.615000
122	1	5.422500	12.652500	7.230000
123	1	7.230000	1.807500	1.807500
124	1	9.037500	0.000000	1.807500
125	1	9.037500	1.807500	0.000000
126	1	5.422500	12.652500	10.845000
127	1	5.422500	10.845000	12.652500
128	1	3.615000	12.652500	12.652500
